50
750 750
1 503 865
2 501 814
3 492 824
4 484 773
5 480 622
6 474 663
7 471 604
8 471 122
9 468 777
10 466 909
11 455 844
12 440 314
13 403 142
14 394 855
15 391 687
16 386 511
17 379 502
18 373 229
19 367 947
20 364 120
21 356 799
22 356 803
23 353 590
24 341 70
25 338 530
26 337 561
27 320 136
28 319 3
29 317 769
30 294 385
31 294 521
32 285 366
33 278 268
34 277 492
35 267 815
36 258 826
37 257 537
38 252 763
39 246 253
40 222 100
41 216 508
42 203 111
43 201 599
44 200 543
45 189 919
46 167 989
47 164 76
48 161 608
49 156 543
50 152 659
